(set-logic QF_LIA)
(declare-fun x0 () Int)
(declare-fun x1 () Int)
(declare-fun x2 () Int)
(declare-fun x3 () Int)
(declare-fun x4 () Int)
(declare-fun x5 () Int)
(declare-fun x6 () Int)
(declare-fun x7 () Int)
(declare-fun x8 () Int)
(declare-fun x9 () Int)
(declare-fun A1 () Bool)
(declare-fun A2 () Bool)
(declare-fun A3 () Bool)
(declare-fun A4 () Bool)
(declare-fun A6 () Bool)
(declare-fun A7 () Bool)
(declare-fun A8 () Bool)
(declare-fun A9 () Bool)
(assert (let ((.def_0 (* (- 1) x1))) (let ((.def_1 (* 1 x4))) (let ((.def_2 (+ .def_1 .def_0))) (let ((.def_3 (< .def_2 (- 1)))) (let ((.def_4 (not .def_3))) (let ((.def_5 (not A2))) (let ((.def_6 (or .def_5 .def_4))) (let ((.def_7 (not A6))) (let ((.def_8 (= A3 .def_7))) (let ((.def_9 (not .def_8))) (let ((.def_10 (and .def_9 .def_6))) (let ((.def_11 (not .def_10))) (let ((.def_12 (* (- 1) x4))) (let ((.def_13 (* 1 x5))) (let ((.def_14 (+ .def_13 .def_12))) (let ((.def_15 (< .def_14 (- 1)))) (let ((.def_16 (or .def_15 A7))) (let ((.def_17 (not .def_16))) (let ((.def_18 (* 1 x9))) (let ((.def_19 (* 1 x0))) (let ((.def_20 (+ .def_19 .def_18))) (let ((.def_21 (< .def_20 (- 1)))) (let ((.def_22 (* (- 1) x9))) (let ((.def_23 (* (- 1) x5))) (let ((.def_24 (+ .def_23 .def_22))) (let ((.def_25 (< .def_24 1))) (let ((.def_26 (not .def_25))) (let ((.def_27 (or .def_26 .def_21))) (let ((.def_28 (and .def_27 .def_17))) (let ((.def_29 (or .def_28 .def_11))) (let ((.def_30 (not .def_29))) (let ((.def_31 (not A3))) (let ((.def_32 (not A4))) (let ((.def_33 (and .def_32 .def_31))) (let ((.def_34 (not .def_33))) (let ((.def_35 (* (- 1) x2))) (let ((.def_36 (+ .def_0 .def_35))) (let ((.def_37 (< .def_36 1))) (let ((.def_38 (not .def_37))) (let ((.def_39 (not A7))) (let ((.def_40 (or .def_39 .def_38))) (let ((.def_41 (and .def_40 .def_34))) (let ((.def_42 (* 1 x2))) (let ((.def_43 (+ .def_23 .def_42))) (let ((.def_44 (< .def_43 1))) (let ((.def_45 (not .def_44))) (let ((.def_46 (not A1))) (let ((.def_47 (and .def_46 .def_45))) (let ((.def_48 (+ .def_18 .def_0))) (let ((.def_49 (< .def_48 (- 1)))) (let ((.def_50 (* 1 x6))) (let ((.def_51 (< .def_50 (- 1)))) (let ((.def_52 (or .def_51 .def_49))) (let ((.def_53 (or .def_52 .def_47))) (let ((.def_54 (or .def_53 .def_41))) (let ((.def_55 (and .def_54 .def_30))) (let ((.def_56 (< .def_18 (- 1)))) (let ((.def_57 (not .def_56))) (let ((.def_58 (not A9))) (let ((.def_59 (and .def_58 .def_57))) (let ((.def_60 (not .def_59))) (let ((.def_61 (* 1 x8))) (let ((.def_62 (+ .def_35 .def_61))) (let ((.def_63 (< .def_62 1))) (let ((.def_64 (or .def_7 .def_63))) (let ((.def_65 (and .def_64 .def_60))) (let ((.def_66 (and A4 .def_5))) (let ((.def_67 (not .def_66))) (let ((.def_68 (or .def_56 A3))) (let ((.def_69 (not .def_68))) (let ((.def_70 (and .def_69 .def_67))) (let ((.def_71 (not .def_70))) (let ((.def_72 (and .def_71 .def_65))) (let ((.def_73 (and .def_56 .def_7))) (let ((.def_74 (not .def_73))) (let ((.def_75 (or .def_32 .def_46))) (let ((.def_76 (or .def_75 .def_74))) (let ((.def_77 (* (- 1) x6))) (let ((.def_78 (+ .def_23 .def_77))) (let ((.def_79 (< .def_78 (- 1)))) (let ((.def_80 (not .def_79))) (let ((.def_81 (or .def_80 A8))) (let ((.def_82 (not .def_81))) (let ((.def_83 (< .def_23 1))) (let ((.def_84 (or A7 .def_83))) (let ((.def_85 (not .def_84))) (let ((.def_86 (and .def_85 .def_82))) (let ((.def_87 (not .def_86))) (let ((.def_88 (and .def_87 .def_76))) (let ((.def_89 (or .def_88 .def_72))) (let ((.def_90 (and .def_89 .def_55))) (let ((.def_91 (<= x9 1))) (let ((.def_92 (<= 0 x9))) (let ((.def_93 (<= x8 1))) (let ((.def_94 (<= 0 x8))) (let ((.def_95 (<= x7 1))) (let ((.def_96 (<= 0 x7))) (let ((.def_97 (<= x6 1))) (let ((.def_98 (<= 0 x6))) (let ((.def_99 (<= x5 1))) (let ((.def_100 (<= 0 x5))) (let ((.def_101 (<= x4 1))) (let ((.def_102 (<= 0 x4))) (let ((.def_103 (<= x3 1))) (let ((.def_104 (<= 0 x3))) (let ((.def_105 (<= x2 1))) (let ((.def_106 (<= 0 x2))) (let ((.def_107 (<= x1 1))) (let ((.def_108 (<= 0 x1))) (let ((.def_109 (<= x0 1))) (let ((.def_110 (<= 0 x0))) (let ((.def_111 (and .def_110 .def_109 .def_108 .def_107 .def_106 .def_105 .def_104 .def_103 .def_102 .def_101 .def_100 .def_99 .def_98 .def_97 .def_96 .def_95 .def_94 .def_93 .def_92 .def_91 .def_90))) .def_111)))))))))))))))))))))))))))))))))))))))))))))))))))))))))))))))))))))))))))))))))))))))))))))))))))))))))))))))))
(check-sat)
